examples/inputs/input12.dzn
n = 50;
l = 450;
s = 450;
r = 450;
f = 100;
forbidden = [| 24, 12
	| 6, 20
	| 49, 25
	| 12, 4
	| 39, 27
	| 23, 17
	| 14, 23
	| 50, 42
	| 25, 10
	| 4, 16
	| 6, 44
	| 45, 5
	| 49, 11
	| 14, 29
	| 26, 22
	| 11, 20
	| 21, 17
	| 30, 49
	| 30, 24
	| 29, 39
	| 5, 18
	| 41, 11
	| 5, 39
	| 4, 43
	| 46, 32
	| 22, 46
	| 5, 22
	| 44, 36
	| 32, 18
	| 48, 27
	| 2, 28
	| 42, 33
	| 46, 23
	| 50, 43
	| 45, 1
	| 30, 29
	| 20, 40
	| 31, 28
	| 36, 11
	| 27, 42
	| 40, 1
	| 50, 24
	| 29, 1
	| 44, 27
	| 11, 30
	| 34, 20
	| 32, 40
	| 46, 37
	| 41, 22
	| 16, 3
	| 14, 20
	| 33, 40
	| 24, 16
	| 8, 6
	| 14, 16
	| 24, 26
	| 36, 36
	| 1, 50
	| 17, 10
	| 21, 46
	| 26, 23
	| 21, 19
	| 22, 35
	| 35, 45
	| 26, 40
	| 32, 49
	| 3, 27
	| 6, 5
	| 26, 48
	| 12, 18
	| 16, 14
	| 26, 5
	| 38, 16
	| 17, 1
	| 37, 11
	| 46, 43
	| 13, 34
	| 45, 14
	| 11, 47
	| 31, 10
	| 28, 43
	| 49, 36
	| 10, 4
	| 33, 16
	| 16, 40
	| 3, 21
	| 27, 27
	| 29, 30
	| 35, 38
	| 18, 43
	| 3, 41
	| 8, 15
	| 45, 22
	| 26, 36
	| 9, 36
	| 50, 30
	| 25, 17
	| 36, 38
	| 21, 2
	| 37, 47
	|];