examples/inputs/input12.lp
#const n = 50.
#const l = 450.
#const s = 450.
#const r = 450.
#const f = 100.
val(24, 12, xxx).
val(6, 20, xxx).
val(49, 25, xxx).
val(12, 4, xxx).
val(39, 27, xxx).
val(23, 17, xxx).
val(14, 23, xxx).
val(50, 42, xxx).
val(25, 10, xxx).
val(4, 16, xxx).
val(6, 44, xxx).
val(45, 5, xxx).
val(49, 11, xxx).
val(14, 29, xxx).
val(26, 22, xxx).
val(11, 20, xxx).
val(21, 17, xxx).
val(30, 49, xxx).
val(30, 24, xxx).
val(29, 39, xxx).
val(5, 18, xxx).
val(41, 11, xxx).
val(5, 39, xxx).
val(4, 43, xxx).
val(46, 32, xxx).
val(22, 46, xxx).
val(5, 22, xxx).
val(44, 36, xxx).
val(32, 18, xxx).
val(48, 27, xxx).
val(2, 28, xxx).
val(42, 33, xxx).
val(46, 23, xxx).
val(50, 43, xxx).
val(45, 1, xxx).
val(30, 29, xxx).
val(20, 40, xxx).
val(31, 28, xxx).
val(36, 11, xxx).
val(27, 42, xxx).
val(40, 1, xxx).
val(50, 24, xxx).
val(29, 1, xxx).
val(44, 27, xxx).
val(11, 30, xxx).
val(34, 20, xxx).
val(32, 40, xxx).
val(46, 37, xxx).
val(41, 22, xxx).
val(16, 3, xxx).
val(14, 20, xxx).
val(33, 40, xxx).
val(24, 16, xxx).
val(8, 6, xxx).
val(14, 16, xxx).
val(24, 26, xxx).
val(36, 36, xxx).
val(1, 50, xxx).
val(17, 10, xxx).
val(21, 46, xxx).
val(26, 23, xxx).
val(21, 19, xxx).
val(22, 35, xxx).
val(35, 45, xxx).
val(26, 40, xxx).
val(32, 49, xxx).
val(3, 27, xxx).
val(6, 5, xxx).
val(26, 48, xxx).
val(12, 18, xxx).
val(16, 14, xxx).
val(26, 5, xxx).
val(38, 16, xxx).
val(17, 1, xxx).
val(37, 11, xxx).
val(46, 43, xxx).
val(13, 34, xxx).
val(45, 14, xxx).
val(11, 47, xxx).
val(31, 10, xxx).
val(28, 43, xxx).
val(49, 36, xxx).
val(10, 4, xxx).
val(33, 16, xxx).
val(16, 40, xxx).
val(3, 21, xxx).
val(27, 27, xxx).
val(29, 30, xxx).
val(35, 38, xxx).
val(18, 43, xxx).
val(3, 41, xxx).
val(8, 15, xxx).
val(45, 22, xxx).
val(26, 36, xxx).
val(9, 36, xxx).
val(50, 30, xxx).
val(25, 17, xxx).
val(36, 38, xxx).
val(21, 2, xxx).
val(37, 47, xxx).